%-----------------------------------------------------------------------------%
n_jobs = 6;
n_machines = 6;

job_sequence = array2d(jobs, machines, [
	2, 0, 1, 3, 5, 4, 
	1, 2, 4, 5, 0, 3, 
	2, 3, 5, 0, 1, 4, 
	1, 0, 2, 3, 4, 5, 
	2, 1, 4, 5, 0, 3, 
	1, 3, 5, 0, 4, 2
]);

job_time = array2d(jobs, machines, [
	1, 3, 6, 7, 3, 6, 
	8, 5, 10, 10, 10, 4, 
	5, 4, 8, 9, 1, 7, 
	5, 5, 5, 3, 8, 9, 
	9, 3, 5, 4, 3, 1, 
	3, 3, 9, 10, 4, 1
]);
%-----------------------------------------------------------------------------%
